sat

(objectives
 ((bvadd PriceProv10 (bvadd PriceProv9 (bvadd PriceProv8 (bvadd PriceProv7 (bvadd PriceProv6 (bvadd PriceProv5 (bvadd PriceProv4 (bvadd PriceProv3 (bvadd PriceProv1 PriceProv2))))))))) (_ bv18840 32))
)
;; statistics
(
 :cnf-variables 867
 :cnf-literals 2124
 :cnf-clauses 1029
 :sat-checks 11
 :sat-restarts 68
 :sat-decisions 206144
 :sat-random-decisions 100
 :sat-propagations 884998797
 :sat-theory-propagations 0
 :sat-watched-clauses-visited 1256252126
 :sat-binary-watched-clauses-visited 625511593
 :sat-conflicts 142372
 :sat-theory-conflicts 0
 :theory-necessary-interface-equalities 0
 :theory-extra-interface-equalities 0
 :euf-total-calls 214776
 :euf-complete-calls 10
 :euf-conflicts 0
 :euf-implications 0
 :euf-explanations 0
 :euf-egraph-nodes-created 57463
 :euf-egraph-nodes-deleted 54470
 :euf-num-asserted-equalities 6758327
 :euf-num-asserted-inequalities 2612465
 :euf-num-merges 18149104
 :euf-num-merges-undone 18149104
 :euf-num-atoms-retold 12992
 :la-total-calls 214776
 :la-complete-calls 10
 :la-conflicts 0
 :la-implications 0
 :la-explanations 0
 :la-num-equalities-split 0
 :la-num-tableau-rows 0
 :la-num-tableau-variables 0
 :bv-total-calls 214776
 :bv-complete-calls 10
 :bv-conflicts 0
 :bv-implications 0
 :bv-explanations 0
 :fp-total-calls 214776
 :fp-complete-calls 10
 :fp-conflicts 0
 :fp-implications 0
 :fp-explanations 0
 :arr-total-calls 214776
 :arr-complete-calls 10
 :arr-conflicts 0
 :arr-implications 0
 :arr-explanations 0
 :arr-write-lemmas-added 0
 :arr-row-lemmas-added 0
 :arr-ext-lemmas-added 0
 :arr-const-lemmas-added 0
 :na-total-calls 214776
 :na-complete-calls 10
 :na-conflicts 0
 :na-implications 0
 :na-explanations 0
 :na-num_nonlinear_multiplications 0
 :na-num_axiom_checks 0
 :na-num_zero_lemmas 0
 :na-num_sign_lemmas 0
 :na-num_neutral_lemmas 0
 :na-num_proportionality_lemmas 0
 :na-num_bound_lemmas 0
 :na-num_tangent_lemmas 0
 :na-num_monotonicity_lemmas 0
 :na-num_sat_checks 0
 :na-axiom_check_time 0.000
 :na-sat_check_time 0.000
 :time-seconds 118.428
 :memory-mb 111.317
)
